* ENCODING=ISO-8859-1
NAME          CPLEX
ROWS
 N  obj1    
 G  c1      
 G  c2      
 G  c3      
 G  c4      
 G  c5      
 G  c6      
 G  c7      
 G  c8      
 G  c9      
 G  c10     
 G  c11     
 G  c12     
 G  c13     
 G  c14     
 G  c15     
 G  c16     
 G  c17     
 G  c18     
 G  c19     
 G  c20     
 G  c21     
 G  c22     
 G  c23     
 G  c24     
 G  c25     
 G  c26     
 G  c27     
 G  c28     
 G  c29     
 G  c30     
 G  c31     
 G  c32     
 G  c33     
 G  c34     
 G  c35     
 G  c36     
 G  c37     
 G  c38     
 G  c39     
 G  c40     
 G  c41     
 G  c42     
 G  c43     
 G  c44     
 G  c45     
 G  c46     
 G  c47     
 G  c48     
 G  c49     
 G  c50     
 G  c51     
 G  c52     
 G  c53     
 G  c54     
 G  c55     
 G  c56     
 G  c57     
 G  c58     
 G  c59     
 G  c60     
COLUMNS
    MARK0000  'MARKER'                 'INTORG'
    x1        obj1                            1
    x1        c2                            552
    x1        c11                           161
    x1        c35                           208
    x1        c49                           954
    x1        c59                           382
    x2        obj1                            1
    x2        c8                            232
    x2        c9                            730
    x2        c11                           290
    x2        c15                           231
    x2        c19                           298
    x2        c40                           488
    x3        obj1                            1
    x3        c2                            779
    x3        c6                            516
    x3        c7                            610
    x3        c9                            724
    x3        c27                          1000
    x3        c40                           540
    x3        c53                           852
    x3        c60                           530
    x4        obj1                            1
    x4        c6                            536
    x4        c7                            807
    x4        c8                            172
    x4        c16                           367
    x4        c19                           510
    x4        c21                           292
    x4        c28                           628
    x4        c30                           164
    x4        c37                           570
    x4        c51                           778
    x4        c58                           458
    x5        obj1                            1
    x5        c1                            181
    x5        c3                            462
    x5        c7                            131
    x5        c13                           187
    x6        obj1                            1
    x6        c5                            167
    x6        c24                           597
    x6        c37                           496
    x6        c41                           372
    x6        c48                           372
    x6        c58                           323
    x7        obj1                            1
    x7        c30                           179
    x7        c41                           867
    x7        c54                           726
    x7        c56                           730
    x7        c59                           539
    x8        obj1                            1
    x8        c1                            926
    x8        c5                            325
    x8        c17                           418
    x8        c21                           751
    x8        c26                           321
    x8        c35                           935
    x8        c37                           644
    x8        c43                           927
    x8        c45                           173
    x8        c49                           466
    x9        obj1                            1
    x9        c7                            558
    x9        c8                            287
    x9        c10                           144
    x9        c13                           257
    x9        c16                           769
    x9        c21                           137
    x9        c26                           826
    x9        c39                           250
    x9        c50                           930
    x9        c56                           919
    x9        c59                           552
    x10       obj1                            1
    x10       c5                            747
    x10       c6                            238
    x10       c17                           720
    x10       c19                           155
    x10       c29                           965
    x10       c50                           534
    x11       obj1                            1
    x11       c14                           173
    x11       c17                           392
    x11       c47                           343
    x12       obj1                            1
    x12       c12                           559
    x12       c25                           370
    x12       c29                           895
    x12       c33                           542
    x12       c45                           979
    x13       obj1                            1
    x13       c2                            696
    x13       c4                            976
    x13       c10                           378
    x13       c14                           293
    x13       c17                           246
    x13       c21                           452
    x13       c23                           861
    x13       c26                           291
    x13       c40                           173
    x13       c56                           491
    x13       c57                           833
    x14       obj1                            1
    x14       c19                           585
    x15       obj1                            1
    x15       c11                           458
    x15       c12                           794
    x15       c22                           781
    x15       c25                           664
    x15       c26                           604
    x15       c29                           993
    x15       c32                           847
    x15       c56                           656
    x15       c60                           110
    x16       obj1                            1
    x16       c2                            933
    x16       c8                            328
    x16       c11                           195
    x16       c12                           316
    x16       c14                           291
    x16       c27                           807
    x16       c41                           757
    x16       c43                           798
    x16       c47                           301
    x16       c50                           959
    x17       obj1                            1
    x17       c1                            918
    x17       c9                            827
    x17       c10                           626
    x17       c31                           179
    x17       c32                           773
    x17       c33                           967
    x17       c44                           154
    x17       c53                           774
    x17       c57                           882
    x17       c58                           827
    x18       obj1                            1
    x18       c10                           339
    x18       c41                           961
    x18       c46                           775
    x18       c56                           452
    x19       obj1                            1
    x19       c1                            554
    x19       c8                            478
    x19       c29                           523
    x19       c43                           146
    x19       c46                           772
    x19       c47                           632
    x19       c48                           875
    x19       c57                           902
    x20       obj1                            1
    x20       c6                            589
    x20       c11                           791
    x20       c16                           413
    x20       c23                           670
    x20       c40                           680
    x20       c51                           837
    x21       obj1                            1
    x21       c11                           182
    x21       c22                           971
    x21       c28                           289
    x21       c37                           215
    x21       c56                           969
    x22       obj1                            1
    x22       c7                            847
    x22       c14                           655
    x22       c15                           275
    x22       c24                           393
    x22       c41                           466
    x22       c46                           815
    x22       c59                           372
    x23       obj1                            1
    x23       c5                            438
    x23       c7                            504
    x23       c12                           334
    x23       c24                           437
    x23       c43                           711
    x23       c47                           929
    x24       obj1                            1
    x24       c6                            370
    x24       c12                           495
    x24       c17                           670
    x24       c28                           180
    x24       c42                           380
    x25       obj1                            1
    x25       c10                           476
    x25       c26                           183
    x25       c30                           570
    x25       c33                           612
    x25       c36                           534
    x25       c50                           929
    x25       c59                           498
    x25       c60                           124
    x26       obj1                            1
    x26       c18                           530
    x26       c36                           314
    x26       c51                           458
    x27       obj1                            1
    x27       c27                           159
    x27       c30                           998
    x27       c34                           326
    x28       obj1                            1
    x28       c4                            529
    x28       c17                           756
    x28       c22                           867
    x28       c36                           685
    x28       c37                           311
    x28       c50                           869
    x28       c60                           140
    x29       obj1                            1
    x29       c2                            861
    x29       c12                           609
    x29       c19                           788
    x29       c23                           368
    x29       c24                           649
    x29       c33                           386
    x29       c45                           222
    x30       obj1                            1
    x30       c1                            135
    x30       c18                           562
    x30       c24                           831
    x30       c29                           995
    x30       c31                           499
    x30       c43                           841
    x30       c49                           314
    x30       c57                           363
    x30       c59                           380
    x31       obj1                            1
    x31       c8                            635
    x31       c13                           396
    x31       c19                           692
    x31       c35                           497
    x31       c36                           594
    x31       c40                           192
    x31       c46                           967
    x31       c52                           613
    x32       obj1                            1
    x32       c21                           301
    x32       c38                           872
    x32       c43                           903
    x33       obj1                            1
    x33       c3                            910
    x33       c12                           269
    x33       c23                           366
    x33       c26                           691
    x33       c34                           353
    x33       c36                           796
    x33       c43                           740
    x34       obj1                            1
    x34       c7                            592
    x34       c15                           200
    x34       c24                           907
    x34       c34                           613
    x34       c35                           132
    x34       c46                           537
    x35       obj1                            1
    x35       c3                            198
    x35       c5                            557
    x35       c19                           260
    x35       c52                           969
    x35       c53                           643
    x36       obj1                            1
    x36       c3                            359
    x36       c26                           105
    x36       c47                           316
    x36       c57                           280
    x37       obj1                            1
    x37       c1                            199
    x37       c3                            989
    x37       c10                           338
    x37       c23                           480
    x37       c30                           431
    x37       c35                           895
    x37       c36                           231
    x37       c37                           125
    x37       c40                           385
    x37       c43                           722
    x37       c47                           479
    x37       c53                           793
    x38       obj1                            1
    x38       c2                            105
    x38       c26                           148
    x38       c36                           507
    x38       c44                           312
    x39       obj1                            1
    x39       c11                           101
    x39       c37                           520
    x39       c42                           853
    x39       c49                           514
    x39       c55                           525
    x39       c57                           178
    x39       c60                           359
    x40       obj1                            1
    x40       c14                           614
    x40       c17                           758
    x40       c26                           263
    x40       c30                           225
    x40       c33                           798
    x40       c38                           126
    x40       c41                           853
    x40       c50                           223
    x41       obj1                            1
    x41       c11                           211
    x41       c16                           822
    x41       c28                           799
    x41       c29                           757
    x41       c32                           343
    x41       c42                           868
    x42       obj1                            1
    x42       c8                            196
    x42       c21                           144
    x42       c28                           314
    x42       c47                           701
    x42       c55                           215
    x43       obj1                            1
    x43       c4                            846
    x43       c16                           862
    x43       c23                           993
    x43       c24                           842
    x43       c32                           784
    x43       c50                           877
    x43       c53                           294
    x43       c55                           590
    x44       obj1                            1
    x44       c5                            804
    x44       c12                           358
    x44       c20                           621
    x44       c47                           462
    x44       c60                           476
    x45       obj1                            1
    x45       c5                            422
    x45       c21                           630
    x45       c29                           645
    x45       c33                           340
    x45       c45                           666
    x45       c58                           943
    x46       obj1                            1
    x46       c11                           129
    x46       c35                           553
    x46       c46                           890
    x46       c49                           490
    x47       obj1                            1
    x47       c5                            236
    x47       c45                           519
    x47       c53                           155
    x48       obj1                            1
    x48       c3                            207
    x48       c28                           440
    x48       c37                           819
    x48       c39                           627
    x48       c41                           205
    x48       c55                           711
    x49       obj1                            1
    x49       c6                            772
    x49       c18                           237
    x49       c31                           750
    x49       c54                           449
    x50       obj1                            1
    x50       c1                            673
    x50       c33                           607
    x50       c36                           902
    x50       c39                           887
    x50       c42                           431
    x50       c48                           255
    x50       c53                           299
    x51       obj1                            1
    x51       c40                           867
    x51       c43                           781
    x51       c52                           497
    x51       c58                           387
    x52       obj1                            1
    x52       c3                            715
    x52       c12                           681
    x52       c21                           643
    x52       c34                           707
    x52       c38                           708
    x53       obj1                            1
    x53       c51                           457
    x53       c57                           530
    x54       obj1                            1
    x54       c3                            757
    x54       c31                           766
    x54       c34                           490
    x54       c46                           434
    x54       c47                           930
    x54       c52                           457
    x55       obj1                            1
    x55       c19                           150
    x55       c23                           155
    x55       c29                           664
    x55       c30                           445
    x55       c35                           109
    x55       c49                           746
    x55       c51                           521
    x55       c53                           443
    x55       c56                           343
    x55       c58                           574
    x56       obj1                            1
    x56       c9                            568
    x56       c27                           773
    x56       c35                           207
    x56       c56                           526
    x57       obj1                            1
    x57       c8                            634
    x57       c13                           503
    x57       c24                           953
    x57       c35                           816
    x57       c40                           973
    x57       c44                           641
    x57       c54                           614
    x57       c57                           953
    x57       c60                           469
    x58       obj1                            1
    x58       c6                            809
    x58       c8                            606
    x58       c10                           964
    x58       c17                           972
    x58       c20                           544
    x58       c25                           210
    x58       c50                           463
    x59       obj1                            1
    x59       c6                            602
    x59       c14                           894
    x59       c20                           880
    x59       c30                           703
    x59       c31                           119
    x59       c36                           788
    x59       c48                           480
    x59       c59                           198
    x60       obj1                            1
    x60       c10                           625
    x60       c16                           362
    x60       c18                           674
    x60       c30                           956
    MARK0001  'MARKER'                 'INTEND'
RHS
    rhs       c1                           1793
    rhs       c2                           1963
    rhs       c3                           2299
    rhs       c4                           1176
    rhs       c5                           1848
    rhs       c6                           2216
    rhs       c7                           2025
    rhs       c8                           1784
    rhs       c9                           1425
    rhs       c10                          1945
    rhs       c11                          1259
    rhs       c12                          2208
    rhs       c13                           672
    rhs       c14                          1460
    rhs       c15                           353
    rhs       c16                          1798
    rhs       c17                          2466
    rhs       c18                          1002
    rhs       c19                          1719
    rhs       c20                          1023
    rhs       c21                          1675
    rhs       c22                          1310
    rhs       c23                          1947
    rhs       c24                          2805
    rhs       c25                           622
    rhs       c26                          1716
    rhs       c27                          1370
    rhs       c28                          1325
    rhs       c29                          3219
    rhs       c30                          2336
    rhs       c31                          1157
    rhs       c32                          1374
    rhs       c33                          2126
    rhs       c34                          1245
    rhs       c35                          2176
    rhs       c36                          2676
    rhs       c37                          1850
    rhs       c38                           853
    rhs       c39                           882
    rhs       c40                          2149
    rhs       c41                          2241
    rhs       c42                          1266
    rhs       c43                          3285
    rhs       c44                           554
    rhs       c45                          1280
    rhs       c46                          2595
    rhs       c47                          2547
    rhs       c48                           991
    rhs       c49                          1742
    rhs       c50                          2892
    rhs       c51                          1526
    rhs       c52                          1268
    rhs       c53                          2127
    rhs       c54                           895
    rhs       c55                          1021
    rhs       c56                          2543
    rhs       c57                          2461
    rhs       c58                          1756
    rhs       c59                          1461
    rhs       c60                          1104
BOUNDS
 LI bnd       x1        0
 LI bnd       x2        0
 LI bnd       x3        0
 LI bnd       x4        0
 LI bnd       x5        0
 LI bnd       x6        0
 LI bnd       x7        0
 LI bnd       x8        0
 LI bnd       x9        0
 LI bnd       x10       0
 LI bnd       x11       0
 LI bnd       x12       0
 LI bnd       x13       0
 LI bnd       x14       0
 LI bnd       x15       0
 LI bnd       x16       0
 LI bnd       x17       0
 LI bnd       x18       0
 LI bnd       x19       0
 LI bnd       x20       0
 LI bnd       x21       0
 LI bnd       x22       0
 LI bnd       x23       0
 LI bnd       x24       0
 LI bnd       x25       0
 LI bnd       x26       0
 LI bnd       x27       0
 LI bnd       x28       0
 LI bnd       x29       0
 LI bnd       x30       0
 LI bnd       x31       0
 LI bnd       x32       0
 LI bnd       x33       0
 LI bnd       x34       0
 LI bnd       x35       0
 LI bnd       x36       0
 LI bnd       x37       0
 LI bnd       x38       0
 LI bnd       x39       0
 LI bnd       x40       0
 LI bnd       x41       0
 LI bnd       x42       0
 LI bnd       x43       0
 LI bnd       x44       0
 LI bnd       x45       0
 LI bnd       x46       0
 LI bnd       x47       0
 LI bnd       x48       0
 LI bnd       x49       0
 LI bnd       x50       0
 LI bnd       x51       0
 LI bnd       x52       0
 LI bnd       x53       0
 LI bnd       x54       0
 LI bnd       x55       0
 LI bnd       x56       0
 LI bnd       x57       0
 LI bnd       x58       0
 LI bnd       x59       0
 LI bnd       x60       0
ENDATA
